Name:		mgval_0.50_1B
Optimal value:	170
#Vehicles:	3
Capacity:	120
Depot Node:	1
#Nodes:		24
#Edges:		13
#Arcs:		38
#Required N:	17
#Required E:	6
#Required A:	19

ReN.	DEMAND	S. COST
N3	17	17
N5	2	2
N7	12	12
N8	4	4
N10	4	4
N11	17	17
N12	15	15
N13	3	3
N14	5	5
N15	4	4
N16	3	3
N17	7	7
N19	27	27
N20	36	36
N21	13	13
N22	4	4
N23	10	10

ReE.	FROM N.	TO N.	T. COST	DEMAND	S. COST
E8	19	22	5	13	13
E9	6	7	3	12	12
E10	21	24	4	13	13
E11	5	11	4	9	9
E12	2	10	2	5	5
E13	4	5	4	3	3

EDGE	FROM N.	TO N.	T. COST
NrE1	7	8	4
NrE2	3	4	5
NrE3	11	12	2
NrE4	20	21	3
NrE5	1	11	7
NrE6	13	17	2
NrE7	1	20	5

ReA.	FROM N.	TO N.	T. COST	DEMAND	S. COST
A20	2	4	1	2	2
A21	14	13	5	5	5
A22	9	1	3	9	9
A23	13	7	4	5	5
A24	5	2	3	6	6
A25	16	15	2	4	4
A26	9	3	2	4	4
A27	13	14	5	5	5
A28	23	22	2	5	5
A29	6	11	7	18	18
A30	17	16	1	2	2
A31	6	5	10	19	19
A32	16	17	1	2	2
A33	2	5	3	6	6
A34	1	5	3	2	2
A35	15	21	6	7	7
A36	18	14	3	8	8
A37	19	20	5	7	7
A38	17	18	2	4	4

ARC	FROM N.	TO N.	T. COST
NrA1	3	10	3
NrA2	5	1	3
NrA3	12	6	4
NrA4	23	24	2
NrA5	12	16	3
NrA6	19	1	4
NrA7	16	12	3
NrA8	20	19	5
NrA9	21	23	5
NrA10	23	21	5
NrA11	8	14	4
NrA12	17	12	4
NrA13	21	15	6
NrA14	10	3	3
NrA15	22	23	2
NrA16	19	9	5
NrA17	20	15	3
NrA18	15	20	3
NrA19	14	8	4
